C101

VEHICLE
NUMBER     CAPACITY
  2         0

CUSTOMER
CUST NO.  XCOORD.   YCOORD.    DEMAND   READY TIME  DUE DATE   SERVICE   TIME
 
    0      0         0          0          0       10           0   
    1      1         2         10          1       2            3   
    2      2         3         10          5       6            0  
    3      2         4         10          5       16           0   
    4      1         3         10          2       10           0    
    5      3         4         10          3       4            0   
